! vna-fence の例のための**計算した値** (実測ではない)。scripts/fakeData.mjs が書く
! 何も入れない治具の漏れを、直列 0.15 pF とした模型
# HZ S RI R 50
1000000 1.000000 -0.000094 0.000000 0.000094 0.000000 0.000094 1.000000 -0.000094
3990000 1.000000 -0.000376 0.000000 0.000376 0.000000 0.000376 1.000000 -0.000376
6980000 1.000000 -0.000658 0.000000 0.000658 0.000000 0.000658 1.000000 -0.000658
9970000 0.999999 -0.000940 0.000001 0.000940 0.000001 0.000940 0.999999 -0.000940
12960000 0.999999 -0.001221 0.000001 0.001221 0.000001 0.001221 0.999999 -0.001221
15950000 0.999998 -0.001503 0.000002 0.001503 0.000002 0.001503 0.999998 -0.001503
18940000 0.999997 -0.001785 0.000003 0.001785 0.000003 0.001785 0.999997 -0.001785
21930000 0.999996 -0.002067 0.000004 0.002067 0.000004 0.002067 0.999996 -0.002067
24920000 0.999994 -0.002349 0.000006 0.002349 0.000006 0.002349 0.999994 -0.002349
27910000 0.999993 -0.002630 0.000007 0.002630 0.000007 0.002630 0.999993 -0.002630
30900000 0.999992 -0.002912 0.000008 0.002912 0.000008 0.002912 0.999992 -0.002912
33890000 0.999990 -0.003194 0.000010 0.003194 0.000010 0.003194 0.999990 -0.003194
36880000 0.999988 -0.003476 0.000012 0.003476 0.000012 0.003476 0.999988 -0.003476
39870000 0.999986 -0.003758 0.000014 0.003758 0.000014 0.003758 0.999986 -0.003758
42860000 0.999984 -0.004039 0.000016 0.004039 0.000016 0.004039 0.999984 -0.004039
45850000 0.999981 -0.004321 0.000019 0.004321 0.000019 0.004321 0.999981 -0.004321
48840000 0.999979 -0.004603 0.000021 0.004603 0.000021 0.004603 0.999979 -0.004603
51830000 0.999976 -0.004885 0.000024 0.004885 0.000024 0.004885 0.999976 -0.004885
54820000 0.999973 -0.005167 0.000027 0.005167 0.000027 0.005167 0.999973 -0.005167
57810000 0.999970 -0.005448 0.000030 0.005448 0.000030 0.005448 0.999970 -0.005448
60800000 0.999967 -0.005730 0.000033 0.005730 0.000033 0.005730 0.999967 -0.005730
63790000 0.999964 -0.006012 0.000036 0.006012 0.000036 0.006012 0.999964 -0.006012
66780000 0.999960 -0.006294 0.000040 0.006294 0.000040 0.006294 0.999960 -0.006294
69770000 0.999957 -0.006575 0.000043 0.006575 0.000043 0.006575 0.999957 -0.006575
72760000 0.999953 -0.006857 0.000047 0.006857 0.000047 0.006857 0.999953 -0.006857
75750000 0.999949 -0.007139 0.000051 0.007139 0.000051 0.007139 0.999949 -0.007139
78740000 0.999945 -0.007421 0.000055 0.007421 0.000055 0.007421 0.999945 -0.007421
81730000 0.999941 -0.007702 0.000059 0.007702 0.000059 0.007702 0.999941 -0.007702
84720000 0.999936 -0.007984 0.000064 0.007984 0.000064 0.007984 0.999936 -0.007984
87710000 0.999932 -0.008266 0.000068 0.008266 0.000068 0.008266 0.999932 -0.008266
90700000 0.999927 -0.008548 0.000073 0.008548 0.000073 0.008548 0.999927 -0.008548
93690000 0.999922 -0.008829 0.000078 0.008829 0.000078 0.008829 0.999922 -0.008829
96680000 0.999917 -0.009111 0.000083 0.009111 0.000083 0.009111 0.999917 -0.009111
99670000 0.999912 -0.009393 0.000088 0.009393 0.000088 0.009393 0.999912 -0.009393
102660000 0.999906 -0.009675 0.000094 0.009675 0.000094 0.009675 0.999906 -0.009675
105650000 0.999901 -0.009956 0.000099 0.009956 0.000099 0.009956 0.999901 -0.009956
108640000 0.999895 -0.010238 0.000105 0.010238 0.000105 0.010238 0.999895 -0.010238
111630000 0.999889 -0.010520 0.000111 0.010520 0.000111 0.010520 0.999889 -0.010520
114620000 0.999883 -0.010801 0.000117 0.010801 0.000117 0.010801 0.999883 -0.010801
117610000 0.999877 -0.011083 0.000123 0.011083 0.000123 0.011083 0.999877 -0.011083
120600000 0.999871 -0.011365 0.000129 0.011365 0.000129 0.011365 0.999871 -0.011365
123590000 0.999864 -0.011647 0.000136 0.011647 0.000136 0.011647 0.999864 -0.011647
126580000 0.999858 -0.011928 0.000142 0.011928 0.000142 0.011928 0.999858 -0.011928
129570000 0.999851 -0.012210 0.000149 0.012210 0.000149 0.012210 0.999851 -0.012210
132560000 0.999844 -0.012492 0.000156 0.012492 0.000156 0.012492 0.999844 -0.012492
135550000 0.999837 -0.012773 0.000163 0.012773 0.000163 0.012773 0.999837 -0.012773
138540000 0.999830 -0.013055 0.000170 0.013055 0.000170 0.013055 0.999830 -0.013055
141530000 0.999822 -0.013337 0.000178 0.013337 0.000178 0.013337 0.999822 -0.013337
144520000 0.999815 -0.013618 0.000185 0.013618 0.000185 0.013618 0.999815 -0.013618
147510000 0.999807 -0.013900 0.000193 0.013900 0.000193 0.013900 0.999807 -0.013900
150500000 0.999799 -0.014181 0.000201 0.014181 0.000201 0.014181 0.999799 -0.014181
153490000 0.999791 -0.014463 0.000209 0.014463 0.000209 0.014463 0.999791 -0.014463
156480000 0.999783 -0.014745 0.000217 0.014745 0.000217 0.014745 0.999783 -0.014745
159470000 0.999774 -0.015026 0.000226 0.015026 0.000226 0.015026 0.999774 -0.015026
162460000 0.999766 -0.015308 0.000234 0.015308 0.000234 0.015308 0.999766 -0.015308
165450000 0.999757 -0.015590 0.000243 0.015590 0.000243 0.015590 0.999757 -0.015590
168440000 0.999748 -0.015871 0.000252 0.015871 0.000252 0.015871 0.999748 -0.015871
171430000 0.999739 -0.016153 0.000261 0.016153 0.000261 0.016153 0.999739 -0.016153
174420000 0.999730 -0.016434 0.000270 0.016434 0.000270 0.016434 0.999730 -0.016434
177410000 0.999721 -0.016716 0.000279 0.016716 0.000279 0.016716 0.999721 -0.016716
180400000 0.999711 -0.016997 0.000289 0.016997 0.000289 0.016997 0.999711 -0.016997
183390000 0.999701 -0.017279 0.000299 0.017279 0.000299 0.017279 0.999701 -0.017279
186380000 0.999692 -0.017560 0.000308 0.017560 0.000308 0.017560 0.999692 -0.017560
189370000 0.999682 -0.017842 0.000318 0.017842 0.000318 0.017842 0.999682 -0.017842
192360000 0.999671 -0.018124 0.000329 0.018124 0.000329 0.018124 0.999671 -0.018124
195350000 0.999661 -0.018405 0.000339 0.018405 0.000339 0.018405 0.999661 -0.018405
198340000 0.999651 -0.018687 0.000349 0.018687 0.000349 0.018687 0.999651 -0.018687
201330000 0.999640 -0.018968 0.000360 0.018968 0.000360 0.018968 0.999640 -0.018968
204320000 0.999629 -0.019250 0.000371 0.019250 0.000371 0.019250 0.999629 -0.019250
207310000 0.999618 -0.019531 0.000382 0.019531 0.000382 0.019531 0.999618 -0.019531
210300000 0.999607 -0.019813 0.000393 0.019813 0.000393 0.019813 0.999607 -0.019813
213290000 0.999596 -0.020094 0.000404 0.020094 0.000404 0.020094 0.999596 -0.020094
216280000 0.999585 -0.020375 0.000415 0.020375 0.000415 0.020375 0.999585 -0.020375
219270000 0.999573 -0.020657 0.000427 0.020657 0.000427 0.020657 0.999573 -0.020657
222260000 0.999561 -0.020938 0.000439 0.020938 0.000439 0.020938 0.999561 -0.020938
225250000 0.999550 -0.021220 0.000450 0.021220 0.000450 0.021220 0.999550 -0.021220
228240000 0.999537 -0.021501 0.000463 0.021501 0.000463 0.021501 0.999537 -0.021501
231230000 0.999525 -0.021783 0.000475 0.021783 0.000475 0.021783 0.999525 -0.021783
234220000 0.999513 -0.022064 0.000487 0.022064 0.000487 0.022064 0.999513 -0.022064
237210000 0.999500 -0.022345 0.000500 0.022345 0.000500 0.022345 0.999500 -0.022345
240200000 0.999488 -0.022627 0.000512 0.022627 0.000512 0.022627 0.999488 -0.022627
243190000 0.999475 -0.022908 0.000525 0.022908 0.000525 0.022908 0.999475 -0.022908
246180000 0.999462 -0.023189 0.000538 0.023189 0.000538 0.023189 0.999462 -0.023189
249170000 0.999449 -0.023471 0.000551 0.023471 0.000551 0.023471 0.999449 -0.023471
252160000 0.999436 -0.023752 0.000564 0.023752 0.000564 0.023752 0.999436 -0.023752
255150000 0.999422 -0.024033 0.000578 0.024033 0.000578 0.024033 0.999422 -0.024033
258140000 0.999408 -0.024315 0.000592 0.024315 0.000592 0.024315 0.999408 -0.024315
261130000 0.999395 -0.024596 0.000605 0.024596 0.000605 0.024596 0.999395 -0.024596
264120000 0.999381 -0.024877 0.000619 0.024877 0.000619 0.024877 0.999381 -0.024877
267110000 0.999367 -0.025159 0.000633 0.025159 0.000633 0.025159 0.999367 -0.025159
270100000 0.999352 -0.025440 0.000648 0.025440 0.000648 0.025440 0.999352 -0.025440
273090000 0.999338 -0.025721 0.000662 0.025721 0.000662 0.025721 0.999338 -0.025721
276080000 0.999323 -0.026002 0.000677 0.026002 0.000677 0.026002 0.999323 -0.026002
279070000 0.999309 -0.026284 0.000691 0.026284 0.000691 0.026284 0.999309 -0.026284
282060000 0.999294 -0.026565 0.000706 0.026565 0.000706 0.026565 0.999294 -0.026565
285050000 0.999279 -0.026846 0.000721 0.026846 0.000721 0.026846 0.999279 -0.026846
288040000 0.999264 -0.027127 0.000736 0.027127 0.000736 0.027127 0.999264 -0.027127
291030000 0.999248 -0.027408 0.000752 0.027408 0.000752 0.027408 0.999248 -0.027408
294020000 0.999233 -0.027689 0.000767 0.027689 0.000767 0.027689 0.999233 -0.027689
297010000 0.999217 -0.027971 0.000783 0.027971 0.000783 0.027971 0.999217 -0.027971
300000000 0.999201 -0.028252 0.000799 0.028252 0.000799 0.028252 0.999201 -0.028252
