! vna-fence の例のための**計算した値** (実測ではない)。scripts/fakeData.mjs が書く
! 100 Ω に、リードの直列 10 nH と足の間の 0.3 pF を足した模型
# HZ S RI R 50
1000000 0.500000 0.000110 0.500000 -0.000110 0.500000 -0.000110 0.500000 0.000110
3990000 0.500001 0.000439 0.499999 -0.000439 0.499999 -0.000439 0.500001 0.000439
6980000 0.500004 0.000767 0.499996 -0.000767 0.499996 -0.000767 0.500004 0.000767
9970000 0.500007 0.001096 0.499993 -0.001096 0.499993 -0.001096 0.500007 0.001096
12960000 0.500013 0.001425 0.499987 -0.001425 0.499987 -0.001425 0.500013 0.001425
15950000 0.500019 0.001754 0.499981 -0.001754 0.499981 -0.001754 0.500019 0.001754
18940000 0.500027 0.002082 0.499973 -0.002082 0.499973 -0.002082 0.500027 0.002082
21930000 0.500036 0.002411 0.499964 -0.002411 0.499964 -0.002411 0.500036 0.002411
24920000 0.500046 0.002740 0.499954 -0.002740 0.499954 -0.002740 0.500046 0.002740
27910000 0.500058 0.003068 0.499942 -0.003068 0.499942 -0.003068 0.500058 0.003068
30900000 0.500071 0.003397 0.499929 -0.003397 0.499929 -0.003397 0.500071 0.003397
33890000 0.500086 0.003725 0.499914 -0.003725 0.499914 -0.003725 0.500086 0.003725
36880000 0.500101 0.004054 0.499899 -0.004054 0.499899 -0.004054 0.500101 0.004054
39870000 0.500118 0.004382 0.499882 -0.004382 0.499882 -0.004382 0.500118 0.004382
42860000 0.500137 0.004711 0.499863 -0.004711 0.499863 -0.004711 0.500137 0.004711
45850000 0.500157 0.005039 0.499843 -0.005039 0.499843 -0.005039 0.500157 0.005039
48840000 0.500178 0.005367 0.499822 -0.005367 0.499822 -0.005367 0.500178 0.005367
51830000 0.500200 0.005696 0.499800 -0.005696 0.499800 -0.005696 0.500200 0.005696
54820000 0.500224 0.006024 0.499776 -0.006024 0.499776 -0.006024 0.500224 0.006024
57810000 0.500249 0.006352 0.499751 -0.006352 0.499751 -0.006352 0.500249 0.006352
60800000 0.500275 0.006680 0.499725 -0.006680 0.499725 -0.006680 0.500275 0.006680
63790000 0.500303 0.007008 0.499697 -0.007008 0.499697 -0.007008 0.500303 0.007008
66780000 0.500332 0.007336 0.499668 -0.007336 0.499668 -0.007336 0.500332 0.007336
69770000 0.500363 0.007663 0.499637 -0.007663 0.499637 -0.007663 0.500363 0.007663
72760000 0.500394 0.007991 0.499606 -0.007991 0.499606 -0.007991 0.500394 0.007991
75750000 0.500427 0.008319 0.499573 -0.008319 0.499573 -0.008319 0.500427 0.008319
78740000 0.500462 0.008646 0.499538 -0.008646 0.499538 -0.008646 0.500462 0.008646
81730000 0.500498 0.008974 0.499502 -0.008974 0.499502 -0.008974 0.500498 0.008974
84720000 0.500535 0.009301 0.499465 -0.009301 0.499465 -0.009301 0.500535 0.009301
87710000 0.500573 0.009628 0.499427 -0.009628 0.499427 -0.009628 0.500573 0.009628
90700000 0.500613 0.009955 0.499387 -0.009955 0.499387 -0.009955 0.500613 0.009955
93690000 0.500654 0.010282 0.499346 -0.010282 0.499346 -0.010282 0.500654 0.010282
96680000 0.500696 0.010609 0.499304 -0.010609 0.499304 -0.010609 0.500696 0.010609
99670000 0.500740 0.010936 0.499260 -0.010936 0.499260 -0.010936 0.500740 0.010936
102660000 0.500785 0.011262 0.499215 -0.011262 0.499215 -0.011262 0.500785 0.011262
105650000 0.500831 0.011589 0.499169 -0.011589 0.499169 -0.011589 0.500831 0.011589
108640000 0.500879 0.011915 0.499121 -0.011915 0.499121 -0.011915 0.500879 0.011915
111630000 0.500928 0.012241 0.499072 -0.012241 0.499072 -0.012241 0.500928 0.012241
114620000 0.500978 0.012567 0.499022 -0.012567 0.499022 -0.012567 0.500978 0.012567
117610000 0.501030 0.012893 0.498970 -0.012893 0.498970 -0.012893 0.501030 0.012893
120600000 0.501083 0.013219 0.498917 -0.013219 0.498917 -0.013219 0.501083 0.013219
123590000 0.501137 0.013544 0.498863 -0.013544 0.498863 -0.013544 0.501137 0.013544
126580000 0.501193 0.013870 0.498807 -0.013870 0.498807 -0.013870 0.501193 0.013870
129570000 0.501249 0.014195 0.498751 -0.014195 0.498751 -0.014195 0.501249 0.014195
132560000 0.501308 0.014520 0.498692 -0.014520 0.498692 -0.014520 0.501308 0.014520
135550000 0.501367 0.014845 0.498633 -0.014845 0.498633 -0.014845 0.501367 0.014845
138540000 0.501428 0.015170 0.498572 -0.015170 0.498572 -0.015170 0.501428 0.015170
141530000 0.501490 0.015494 0.498510 -0.015494 0.498510 -0.015494 0.501490 0.015494
144520000 0.501554 0.015819 0.498446 -0.015819 0.498446 -0.015819 0.501554 0.015819
147510000 0.501619 0.016143 0.498381 -0.016143 0.498381 -0.016143 0.501619 0.016143
150500000 0.501685 0.016467 0.498315 -0.016467 0.498315 -0.016467 0.501685 0.016467
153490000 0.501753 0.016791 0.498247 -0.016791 0.498247 -0.016791 0.501753 0.016791
156480000 0.501821 0.017114 0.498179 -0.017114 0.498179 -0.017114 0.501821 0.017114
159470000 0.501892 0.017438 0.498108 -0.017438 0.498108 -0.017438 0.501892 0.017438
162460000 0.501963 0.017761 0.498037 -0.017761 0.498037 -0.017761 0.501963 0.017761
165450000 0.502036 0.018084 0.497964 -0.018084 0.497964 -0.018084 0.502036 0.018084
168440000 0.502110 0.018407 0.497890 -0.018407 0.497890 -0.018407 0.502110 0.018407
171430000 0.502185 0.018729 0.497815 -0.018729 0.497815 -0.018729 0.502185 0.018729
174420000 0.502262 0.019052 0.497738 -0.019052 0.497738 -0.019052 0.502262 0.019052
177410000 0.502340 0.019374 0.497660 -0.019374 0.497660 -0.019374 0.502340 0.019374
180400000 0.502419 0.019696 0.497581 -0.019696 0.497581 -0.019696 0.502419 0.019696
183390000 0.502500 0.020017 0.497500 -0.020017 0.497500 -0.020017 0.502500 0.020017
186380000 0.502582 0.020339 0.497418 -0.020339 0.497418 -0.020339 0.502582 0.020339
189370000 0.502665 0.020660 0.497335 -0.020660 0.497335 -0.020660 0.502665 0.020660
192360000 0.502750 0.020981 0.497250 -0.020981 0.497250 -0.020981 0.502750 0.020981
195350000 0.502836 0.021302 0.497164 -0.021302 0.497164 -0.021302 0.502836 0.021302
198340000 0.502923 0.021622 0.497077 -0.021622 0.497077 -0.021622 0.502923 0.021622
201330000 0.503012 0.021942 0.496988 -0.021942 0.496988 -0.021942 0.503012 0.021942
204320000 0.503101 0.022262 0.496899 -0.022262 0.496899 -0.022262 0.503101 0.022262
207310000 0.503193 0.022582 0.496807 -0.022582 0.496807 -0.022582 0.503193 0.022582
210300000 0.503285 0.022902 0.496715 -0.022902 0.496715 -0.022902 0.503285 0.022902
213290000 0.503379 0.023221 0.496621 -0.023221 0.496621 -0.023221 0.503379 0.023221
216280000 0.503474 0.023540 0.496526 -0.023540 0.496526 -0.023540 0.503474 0.023540
219270000 0.503570 0.023858 0.496430 -0.023858 0.496430 -0.023858 0.503570 0.023858
222260000 0.503668 0.024177 0.496332 -0.024177 0.496332 -0.024177 0.503668 0.024177
225250000 0.503767 0.024495 0.496233 -0.024495 0.496233 -0.024495 0.503767 0.024495
228240000 0.503867 0.024812 0.496133 -0.024812 0.496133 -0.024812 0.503867 0.024812
231230000 0.503969 0.025130 0.496031 -0.025130 0.496031 -0.025130 0.503969 0.025130
234220000 0.504072 0.025447 0.495928 -0.025447 0.495928 -0.025447 0.504072 0.025447
237210000 0.504176 0.025764 0.495824 -0.025764 0.495824 -0.025764 0.504176 0.025764
240200000 0.504281 0.026080 0.495719 -0.026080 0.495719 -0.026080 0.504281 0.026080
243190000 0.504388 0.026397 0.495612 -0.026397 0.495612 -0.026397 0.504388 0.026397
246180000 0.504496 0.026713 0.495504 -0.026713 0.495504 -0.026713 0.504496 0.026713
249170000 0.504606 0.027028 0.495394 -0.027028 0.495394 -0.027028 0.504606 0.027028
252160000 0.504716 0.027344 0.495284 -0.027344 0.495284 -0.027344 0.504716 0.027344
255150000 0.504828 0.027659 0.495172 -0.027659 0.495172 -0.027659 0.504828 0.027659
258140000 0.504942 0.027973 0.495058 -0.027973 0.495058 -0.027973 0.504942 0.027973
261130000 0.505056 0.028288 0.494944 -0.028288 0.494944 -0.028288 0.505056 0.028288
264120000 0.505172 0.028602 0.494828 -0.028602 0.494828 -0.028602 0.505172 0.028602
267110000 0.505289 0.028915 0.494711 -0.028915 0.494711 -0.028915 0.505289 0.028915
270100000 0.505408 0.029229 0.494592 -0.029229 0.494592 -0.029229 0.505408 0.029229
273090000 0.505527 0.029542 0.494473 -0.029542 0.494473 -0.029542 0.505527 0.029542
276080000 0.505648 0.029854 0.494352 -0.029854 0.494352 -0.029854 0.505648 0.029854
279070000 0.505771 0.030167 0.494229 -0.030167 0.494229 -0.030167 0.505771 0.030167
282060000 0.505894 0.030479 0.494106 -0.030479 0.494106 -0.030479 0.505894 0.030479
285050000 0.506019 0.030790 0.493981 -0.030790 0.493981 -0.030790 0.506019 0.030790
288040000 0.506145 0.031102 0.493855 -0.031102 0.493855 -0.031102 0.506145 0.031102
291030000 0.506273 0.031412 0.493727 -0.031412 0.493727 -0.031412 0.506273 0.031412
294020000 0.506402 0.031723 0.493598 -0.031723 0.493598 -0.031723 0.506402 0.031723
297010000 0.506532 0.032033 0.493468 -0.032033 0.493468 -0.032033 0.506532 0.032033
300000000 0.506663 0.032343 0.493337 -0.032343 0.493337 -0.032343 0.506663 0.032343
